70 
300 
10.5 14.4 0 0
11.2 14.1 0 -87
18 15.9 -10 -137
18.3 13.3 -10 -115
16.5 9.3 10 -14
15.4 11 10 -24
14.9 13.2 5 -24
16.3 13.3 -5 -84
16.4 17.8 5 -24
15 17.9 5 -10
16.1 19.6 10 -14
15.7 20.6 10 -24
13.2 20.1 10 -10
14.3 15.3 5 -18
14 5.1 -10 -76
11.4 6.7 15 -12
8.3 5 -15 -113
7.9 9.8 10 -18
11.4 12 -5 -70
11.2 17.6 -5 -98
10.1 18.7 5 -23
11.7 20.3 -10 -78
10.2 22.1 10 -24
9.7 23.8 10 -24
10.1 26.4 15 -19
7.4 24 15 -10
8.2 19.9 15 -27
8.7 17.7 -10 -70
8.9 13.6 -10 -61
5.6 11.1 10 -29
4.9 18.9 10 -29
7.3 18.8 -10 -94
